20
19
8 12 9 1 5 17 4 3 0 10 13 15
3 10 11 0 19 13 12 15 9 17 5 18 2 16 1 4 8
4 3 11 7 8 19 0 1 2 14 12 16 13 17 9 5
14 6 16 5 0 8 18 15 13 2 1 4 19 3 7 10 11 9 12 17
17 3 10 19 18 9 16 12 14
17 5 10 11 0 1 8
18 9 2 16 11 8 10 17 19 14 1 6 4 5 0 13
16 1
16 15 5 8 6 11 19 9 12 10 0
14 5 9 19 0 11 13 7 12 15 1 3 8 10 18 6 2 17
4 19 16 17 1 3 12 9 0 10 8
4 8 3 9 18
5 15 1 18 2 11 10 3 14 19 4 13 6 0 17 12
5 14 1 17 18 15 6 7
6 1 14 17 10 8 13 5 3 16 18 12 0 7 19 2 9 15
14 7 0 13 11 6 3 17 10 5 19 8 18 15 9 2 1 12 4 16
15 0 17 16 2 13 11 3 7
3 14 12 17 10 19 15
8 5 15 14 17 6 7 16 13 1 2 18 3 4
